************************************************************************
file with basedata            : n/a
initial value random generator: n/a
************************************************************************
projects                      :  1
jobs (incl. supersource/sink ):  122
horizon                       :  725
RESOURCES
  - renewable                 :  4   R
  - nonrenewable              :  0   N
  - doubly constrained        :  0   D
************************************************************************
PROJECT INFORMATION:
pronr.  #jobs rel.date duedate tardcost  MPM-Time
    1    120      0       94       88       94
************************************************************************
PRECEDENCE RELATIONS:
jobnr.    #modes  #successors   successors
   1        1          3           2   3   4
   2        1          3           5  10  80
   3        1          3           9  19  34
   4        1          3           6   7   8
   5        1          3          12  21  30
   6        1          3          13  17  20
   7        1          3          11  15  16
   8        1          2          22  69
   9        1          3          24  41  84
  10        1          1         106
  11        1          3          14  51 100
  12        1          3          47  49  92
  13        1          3          18  23  32
  14        1          1          60
  15        1          1          40
  16        1          3          28  58  91
  17        1          2          26 106
  18        1          2          81 115
  19        1          3          25  77  80
  20        1          3          43  61  63
  21        1          3          54  56 101
  22        1          2          29  35
  23        1          1          37
  24        1          1          27
  25        1          2          58  91
  26        1          3          43  45  69
  27        1          1          65
  28        1          3          31  33  50
  29        1          1          55
  30        1          3          39  46  52
  31        1          1          52
  32        1          2          40  70
  33        1          2          42  61
  34        1          3          36  45  96
  35        1          3          48  64  83
  36        1          1          86
  37        1          2          38  57
  38        1          2          95 101
  39        1          2          51  61
  40        1          3          59  78 120
  41        1          2          44  82
  42        1          2          44  83
  43        1          1          94
  44        1          2          71  92
  45        1          2          93  98
  46        1          1          95
  47        1          1         117
  48        1          1          85
  49        1          1          53
  50        1          3          52  67  98
  51        1          1          79
  52        1          2          75 113
  53        1          3          57  62 109
  54        1          1          87
  55        1          2          66  70
  56        1          2          62  65
  57        1          2          67  82
  58        1          3          67  68  81
  59        1          1          71
  60        1          3          72  74  76
  61        1          3          73  78  94
  62        1          2          83  89
  63        1          3          72  99 109
  64        1          2          81  96
  65        1          2          72 111
  66        1          2          77 118
  67        1          1          84
  68        1          2          70 121
  69        1          1          99
  70        1          2          86 105
  71        1          2          75  76
  72        1          2          93 103
  73        1          2          77 102
  74        1          2          79 107
  75        1          1          96
  76        1          2          85  87
  77        1          2          88 112
  78        1          2          86  87
  79        1          2         101 121
  80        1          1         100
  81        1          1          82
  82        1          3          94 104 108
  83        1          1          90
  84        1          3         103 105 112
  85        1          1         119
  86        1          1         110
  87        1          2          88  97
  88        1          1         119
  89        1          2          90  93
  90        1          2         107 108
  91        1          2         102 113
  92        1          1          97
  93        1          1          97
  94        1          1          99
  95        1          3         104 110 118
  96        1          1         109
  97        1          1         121
  98        1          2         100 104
  99        1          1         114
 100        1          1         115
 101        1          1         116
 102        1          1         111
 103        1          2         113 114
 104        1          1         107
 105        1          2         106 111
 106        1          1         108
 107        1          1         112
 108        1          1         118
 109        1          1         110
 110        1          1         115
 111        1          1         117
 112        1          1         114
 113        1          1         116
 114        1          1         117
 115        1          1         116
 116        1          1         119
 117        1          1         120
 118        1          1         120
 119        1          1         122
 120        1          1         122
 121        1          1         122
 122        1          0        
************************************************************************
REQUESTS/DURATIONS:
jobnr. mode duration  R 1  R 2  R 3  R 4
------------------------------------------------------------------------
  1      1     0    
  2      1     9       7   7   7   7   7   7   7   7   7
                       0   0   0   0   0   0   0   0   0
                       4   4   4   4   4   4   4   4   4
                       4   4   4   4   4   4   4   4   4
  3      1     7       0   0   0   0   0   0   0
                       1   1   1   1   1   1   1
                       0   0   0   0   0   0   0
                       0   0   0   0   0   0   0
  4      1     9       5   5   5   5   5   3   5   5   5
                       0   0   0   0   0   0   0   0   0
                       5   5   5   5   5   3   5   5   5
                       2   2   2   2   2   1   2   2   2
  5      1     9       5   5   5   5   5   5   5   5   5
                       3   3   3   3   3   3   3   3   3
                       0   0   0   0   0   0   0   0   0
                       8   8   8   8   8   8   8   8   8
  6      1     6       0   0   0   0   0   0
                       1   1   1   1   1   1
                      10  10  10  10  10  10
                       6   6   6   6   6   6
  7      1     3       1   1   1
                       0   0   0
                       4   4   4
                       8   8   8
  8      1     3       1   1   1
                       0   0   0
                       8   8   8
                       1   1   1
  9      1     2       0   0
                       0   0
                       2   3
                       3   5
 10      1     3       4   4   2
                      10  10   5
                       5   5   3
                       0   0   0
 11      1     7       4   4   4   4   2   2   4
                       0   0   0   0   0   0   0
                       3   3   3   3   2   2   3
                       1   1   1   1   1   1   1
 12      1     9       0   0   0   0   0   0   0   0   0
                       0   0   0   0   0   0   0   0   0
                       4   4   4   4   4   4   4   4   4
                      10  10  10  10  10  10  10  10  10
 13      1     1       1
                       3
                       8
                       0
 14      1     4       3   3   3   3
                       1   1   1   1
                       0   0   0   0
                       4   4   4   4
 15      1     8       0   0   0   0   0   0   0   0
                       0   0   0   0   0   0   0   0
                       9   9   9   5   9   9   9   5
                       8   8   8   4   8   8   8   4
 16      1     9       0   0   0   0   0   0   0   0   0
                       0   0   0   0   0   0   0   0   0
                       3   3   3   3   3   3   2   3   3
                       1   1   1   1   1   1   1   1   1
 17      1     6       2   1   2   2   2   1
                       7   4   7   7   7   4
                       9   5   9   9   9   5
                       2   1   2   2   2   1
 18      1     9       1   1   1   1   1   1   1   1   1
                       9   9   9   9   9   9   5   9   9
                      10  10  10  10  10  10   5  10  10
                       9   9   9   9   9   9   5   9   9
 19      1     9       5   5   5   3   5   3   5   5   5
                      10  10  10   5  10   5  10  10  10
                      10  10  10   5  10   5  10  10  10
                       1   1   1   1   1   1   1   1   1
 20      1     8       2   2   2   2   2   2   2   2
                       0   0   0   0   0   0   0   0
                       1   1   1   1   1   1   1   1
                       0   0   0   0   0   0   0   0
 21      1     9       0   0   0   0   0   0   0   0   0
                       0   0   0   0   0   0   0   0   0
                       2   2   2   2   2   2   2   1   2
                       8   8   8   8   8   8   8   4   8
 22      1     2       3   2
                       5   3
                       2   1
                       6   3
 23      1    10       0   0   0   0   0   0   0   0   0   0
                       7   7   7   7   7   7   7   7   7   7
                       7   7   7   7   7   7   7   7   7   7
                       6   6   6   6   6   6   6   6   6   6
 24      1    10       8   8   8   8   4   8   8   8   8   8
                       0   0   0   0   0   0   0   0   0   0
                       8   8   8   8   4   8   8   8   8   8
                       4   4   4   4   2   4   4   4   4   4
 25      1     9       3   2   3   3   3   3   3   3   3
                       6   3   6   6   6   6   6   6   6
                       7   4   7   7   7   7   7   7   7
                       3   2   3   3   3   3   3   3   3
 26      1     7       2   3   3   3   3   3   3
                       2   3   3   3   3   3   3
                       5  10  10  10  10  10  10
                       0   0   0   0   0   0   0
 27      1     2       0   0
                       3   3
                       1   1
                      10  10
 28      1     7       0   0   0   0   0   0   0
                       1   1   1   1   1   1   1
                       9   9   9   9   9   9   9
                       9   9   9   9   9   9   9
 29      1     4       0   0   0   0
                       5   5   5   5
                       5   5   5   5
                       7   7   7   7
 30      1     4       9   9   9   9
                       1   1   1   1
                       2   2   2   2
                       2   2   2   2
 31      1    10       4   4   4   4   4   4   4   4   4   4
                       2   2   2   2   2   2   2   2   2   2
                       1   1   1   1   1   1   1   1   1   1
                       0   0   0   0   0   0   0   0   0   0
 32      1     6       1   1   1   1   1   1
                       0   0   0   0   0   0
                       9   9   9   9   5   9
                      10  10  10  10   5  10
 33      1     7       6   6   6   6   6   6   6
                       6   6   6   6   6   6   6
                       6   6   6   6   6   6   6
                       5   5   5   5   5   5   5
 34      1     3       5   5   5
                       0   0   0
                       6   6   6
                       7   7   7
 35      1     8       3   3   3   3   3   3   3   3
                       6   6   6   6   6   6   6   6
                       3   3   3   3   3   3   3   3
                       3   3   3   3   3   3   3   3
 36      1     8       5   5   3   5   5   5   5   5
                       8   8   4   8   8   8   8   8
                       6   6   3   6   6   6   6   6
                       9   9   5   9   9   9   9   9
 37      1     9       0   0   0   0   0   0   0   0   0
                      10  10  10  10  10  10  10  10  10
                       0   0   0   0   0   0   0   0   0
                       3   3   3   3   3   3   3   3   3
 38      1    10       0   0   0   0   0   0   0   0   0   0
                       3   6   6   6   6   6   6   3   6   6
                       2   4   4   4   4   4   4   2   4   4
                       0   0   0   0   0   0   0   0   0   0
 39      1     9       5   5   5   5   5   5   5   5   5
                       4   4   4   4   4   4   4   4   4
                       9   9   9   9   9   9   9   9   9
                       6   6   6   6   6   6   6   6   6
 40      1     5       1   1   1   1   1
                       9   9   9   9   9
                       5   5   5   5   5
                       0   0   0   0   0
 41      1     8       1   1   1   1   1   1   1   1
                       2   2   2   2   1   2   2   1
                       0   0   0   0   0   0   0   0
                       0   0   0   0   0   0   0   0
 42      1     7       8   8   8   8   8   8   8
                       9   9   9   9   9   9   9
                       2   2   2   2   2   2   2
                       3   3   3   3   3   3   3
 43      1     1       7
                       0
                       0
                       7
 44      1    10      10  10  10  10  10  10  10  10  10  10
                       5   5   5   5   5   5   5   5   5   5
                       4   4   4   4   4   4   4   4   4   4
                       0   0   0   0   0   0   0   0   0   0
 45      1    10       3   3   3   3   3   3   3   2   3   3
                       9   9   9   9   9   9   9   5   9   9
                       4   4   4   4   4   4   4   2   4   4
                       0   0   0   0   0   0   0   0   0   0
 46      1     4       0   0   0   0
                       3   3   3   3
                       3   3   3   3
                       9   9   9   9
 47      1     5       2   2   2   2   2
                      10  10  10  10  10
                       1   1   1   1   1
                       9   9   9   9   9
 48      1    10       0   0   0   0   0   0   0   0   0   0
                       8   4   8   8   8   8   4   8   8   8
                       0   0   0   0   0   0   0   0   0   0
                       5   3   5   5   5   5   3   5   5   5
 49      1     6       9   9   9   9   9   9
                       1   1   1   1   1   1
                       5   5   5   5   5   5
                       0   0   0   0   0   0
 50      1     4       8   8   8   8
                       2   2   2   2
                      10  10  10  10
                       4   4   4   4
 51      1     2       5   5
                       7   7
                       1   1
                       7   7
 52      1     6       7   7   7   7   7   7
                       0   0   0   0   0   0
                       0   0   0   0   0   0
                       8   8   8   8   8   8
 53      1     4       0   0   0   0
                       1   1   1   1
                       4   4   4   4
                      10  10  10  10
 54      1     4       8   8   4   8
                       5   5   3   5
                       0   0   0   0
                       4   4   2   4
 55      1     5       0   0   0   0   0
                       0   0   0   0   0
                       0   0   0   0   0
                       1   1   1   1   1
 56      1     7       7   4   7   4   7   7   7
                       8   4   8   4   8   8   8
                       0   0   0   0   0   0   0
                       4   2   4   2   4   4   4
 57      1     7       5   5   5   5   5   5   5
                       6   6   6   6   6   6   6
                       0   0   0   0   0   0   0
                      10  10  10  10  10  10  10
 58      1     2       8   8
                       8   8
                       8   8
                       0   0
 59      1     7       2   2   2   2   2   2   2
                       0   0   0   0   0   0   0
                      10  10  10  10  10  10  10
                       6   6   6   6   6   6   6
 60      1     4       5   9   9   9
                       2   4   4   4
                       2   4   4   4
                       5   9   9   9
 61      1     9       6   6   6   3   6   3   6   3   6
                       1   1   1   1   1   1   1   1   1
                       2   2   2   1   2   1   2   1   2
                       8   8   8   4   8   4   8   4   8
 62      1     7       8   8   8   8   8   8   8
                       4   4   4   4   4   4   4
                       4   4   4   4   4   4   4
                       2   2   2   2   2   2   2
 63      1     3       6   6   6
                       6   6   6
                       1   1   1
                       7   7   7
 64      1    10       5   5   3   5   5   5   5   5   5   5
                       2   2   1   2   2   2   2   2   2   2
                       4   4   2   4   4   4   4   4   4   4
                       4   4   2   4   4   4   4   4   4   4
 65      1     1       0
                       7
                       5
                       0
 66      1     1       6
                       4
                       5
                       1
 67      1     7       6   6   6   6   6   6   6
                       2   2   2   2   2   2   2
                       4   4   4   4   4   4   4
                       0   0   0   0   0   0   0
 68      1     7       2   2   2   2   1   2   2
                       0   0   0   0   0   0   0
                       0   0   0   0   0   0   0
                       0   0   0   0   0   0   0
 69      1     7       3   3   3   3   3   3   3
                       5   5   5   5   5   5   5
                       5   5   5   5   5   5   5
                       9   9   9   9   9   9   9
 70      1     1       0
                       1
                       8
                       8
 71      1     2      10  10
                       5   5
                       6   6
                       4   4
 72      1    10       1   1   1   1   1   1   1   1   1   1
                       2   2   2   2   2   2   1   2   1   2
                      10  10  10  10  10  10   5  10   5  10
                       7   7   7   7   7   7   4   7   4   7
 73      1     9       0   0   0   0   0   0   0   0   0
                       5   5   5   5   5   3   5   5   5
                       8   8   8   8   8   4   8   8   8
                       5   5   5   5   5   3   5   5   5
 74      1     8       6   6   6   6   6   6   6   6
                      10  10  10  10  10  10  10  10
                       4   4   4   4   4   4   4   4
                       2   2   2   2   2   2   2   2
 75      1     2       8   8
                       0   0
                       2   2
                      10  10
 76      1     7       9   9   9   9   9   9   9
                       1   1   1   1   1   1   1
                       2   2   2   2   2   2   2
                       9   9   9   9   9   9   9
 77      1     1       0
                       8
                       0
                       5
 78      1     6       7   7   4   7   7   7
                       4   4   2   4   4   4
                       6   6   3   6   6   6
                       0   0   0   0   0   0
 79      1     7       0   0   0   0   0   0   0
                       8   4   8   8   8   8   8
                       5   3   5   5   5   5   5
                       2   1   2   2   2   2   2
 80      1     4       5  10  10  10
                       3   5   5   5
                       3   5   5   5
                       0   0   0   0
 81      1     8       9   9   9   9   9   9   9   9
                       0   0   0   0   0   0   0   0
                       8   8   8   8   8   8   8   8
                       6   6   6   6   6   6   6   6
 82      1     9       0   0   0   0   0   0   0   0   0
                       9   9   9   9   9   9   9   9   9
                       2   2   2   2   2   2   2   2   2
                       5   5   5   5   5   5   5   5   5
 83      1     8       0   0   0   0   0   0   0   0
                       3   3   5   5   3   5   5   5
                       2   2   4   4   2   4   4   4
                       4   4   8   8   4   8   8   8
 84      1     9       1   1   1   1   1   1   1   1   1
                       4   4   4   4   4   4   4   4   4
                       2   2   2   2   2   2   2   2   2
                       0   0   0   0   0   0   0   0   0
 85      1     4       4   4   4   4
                       5   5   5   5
                       8   8   8   8
                       4   4   4   4
 86      1     8       2   1   2   2   2   2   2   2
                       0   0   0   0   0   0   0   0
                       8   4   8   8   8   8   8   8
                       3   2   3   3   3   3   3   3
 87      1     8       8   8   4   8   8   8   8   8
                       9   9   5   9   9   9   9   9
                       8   8   4   8   8   8   8   8
                       2   2   1   2   2   2   2   2
 88      1     9       0   0   0   0   0   0   0   0   0
                       0   0   0   0   0   0   0   0   0
                       7   7   7   4   7   7   4   7   7
                       3   3   3   2   3   3   2   3   3
 89      1     6       3   5   5   3   5   3
                       0   0   0   0   0   0
                       2   4   4   2   4   2
                       0   0   0   0   0   0
 90      1     2       4   4
                       0   0
                      10  10
                       0   0
 91      1     2       9   9
                       0   0
                      10  10
                       2   2
 92      1     7       4   7   4   7   7   7   7
                       4   8   4   8   8   8   8
                       3   5   3   5   5   5   5
                       3   6   3   6   6   6   6
 93      1     7      10  10  10   5  10   5  10
                       8   8   8   4   8   4   8
                       2   2   2   1   2   1   2
                       1   1   1   1   1   1   1
 94      1     4       5   5   5   5
                       0   0   0   0
                       0   0   0   0
                      10  10  10  10
 95      1     1       1
                       6
                       9
                       3
 96      1     9       4   4   4   4   4   4   4   2   4
                       0   0   0   0   0   0   0   0   0
                      10  10  10  10  10  10  10   5  10
                       0   0   0   0   0   0   0   0   0
 97      1     8       0   0   0   0   0   0   0   0
                       2   1   2   2   2   2   2   2
                       3   2   3   3   3   3   3   3
                       8   4   8   8   8   8   8   8
 98      1    10       1   1   1   1   1   1   1   1   1   1
                       1   1   1   1   1   1   1   1   1   1
                       5   5   5   5   5   5   5   5   5   3
                      10  10  10  10  10  10  10  10  10   5
 99      1     7       0   0   0   0   0   0   0
                       6   6   6   6   6   6   6
                       9   9   9   9   9   9   9
                       8   8   8   8   8   8   8
100      1     1       4
                       7
                       0
                       5
101      1     2       6   3
                       0   0
                       0   0
                       7   4
102      1     6       0   0   0   0   0   0
                       6   6   6   6   6   6
                       7   7   7   7   7   7
                       2   2   2   2   2   2
103      1     6       4   4   4   4   2   4
                       0   0   0   0   0   0
                       0   0   0   0   0   0
                       1   1   1   1   1   1
104      1     6       1   1   1   1   1   1
                       2   2   2   2   2   2
                       9   9   9   9   9   9
                       1   1   1   1   1   1
105      1    10       3   3   3   3   3   3   3   3   3   3
                       5   5   5   5   5   5   5   5   5   5
                      10  10  10  10  10  10  10  10  10  10
                       0   0   0   0   0   0   0   0   0   0
106      1     3      10  10  10
                       0   0   0
                       9   9   9
                       0   0   0
107      1     8       1   1   1   1   1   1   1   1
                       5   5   5   5   5   3   5   5
                       6   6   6   6   6   3   6   6
                       0   0   0   0   0   0   0   0
108      1     5       2   2   2   2   2
                       7   7   7   7   7
                       0   0   0   0   0
                       5   5   5   5   5
109      1     4       9   9   9   9
                       9   9   9   9
                       3   3   3   3
                       2   2   2   2
110      1     5       0   0   0   0   0
                       0   0   0   0   0
                       0   0   0   0   0
                       2   2   2   2   2
111      1     6       9   9   9   5   9   9
                       8   8   8   4   8   8
                       4   4   4   2   4   4
                       6   6   6   3   6   6
112      1     4       0   0   0   0
                       7   7   7   7
                       4   4   4   4
                       0   0   0   0
113      1     3       5   5   5
                       0   0   0
                       7   7   7
                       0   0   0
114      1     7       8   8   8   8   8   8   8
                       9   9   9   9   9   9   9
                       7   7   7   7   7   7   7
                       1   1   1   1   1   1   1
115      1     5       5  10  10  10  10
                       1   1   1   1   1
                       2   4   4   4   4
                       1   1   1   1   1
116      1     5       2   2   2   2   2
                       0   0   0   0   0
                       0   0   0   0   0
                       9   9   9   9   9
117      1     4       7   7   7   7
                      10  10  10  10
                       0   0   0   0
                       0   0   0   0
118      1    10       4   7   4   7   7   7   7   7   7   7
                       0   0   0   0   0   0   0   0   0   0
                       4   7   4   7   7   7   7   7   7   7
                       5   9   5   9   9   9   9   9   9   9
119      1     6       0   0   0   0   0   0
                       9   9   9   9   9   9
                       6   6   6   6   6   6
                       0   0   0   0   0   0
120      1     6       3   3   3   2   3   3
                       2   2   2   1   2   2
                       9   9   9   5   9   9
                       0   0   0   0   0   0
121      1     5       6   6   6   6   6
                       5   5   5   5   5
                       0   0   0   0   0
                       0   0   0   0   0
122      1     0    
************************************************************************
RESOURCEAVAILABILITIES:
  R 1  R 2  R 3  R 4

  37  37  37  37  19  37  19  37  37  19  37  37  37  19  37  37  37  37  37  37  37  37  19  19  19  19  37  37  37  37  37  19  37  37  37  19  37  37  37  37  19  37  37  37  37  19  37  37  37  37  37  37  37  37  37  37  37  37  37  37  37  37  37  37  37  37  37  37  37  37  37  37  37  19  37  37  37  37  37  19  37  37  37  37  37  19  37  37  37  37  19  37  37  37  37  37  37  37  37  37  37  37  37  19  37  37  37  37  37  37  37  37  37  37  37  37  37  37  37  37  37  37  37  37  37  37  37  37  37  37  37  37  37  37  37  37  37  37  37  37  37  37  37  37  37  37  37  37  37  37  37  37  37  37  37  37  37  37  37  37  19  37  37  37  37  37  37  37  37  19  19  37  37  37  37  37  19  37  19  37  37  19  37  37  37  37  37  19  37  37  37  37  37  19  37  37  37  37  37  37  19  37  37  37  37  37  37  37  37  19  37  37  37  37  37  37  37  37  37  37  37  19  37  37  37  37  37  37  37  37  37  37  37  37  37  37  37  37  19  37  37  37  37  37  37  19  37  19  37  37  37  37  37  37  37  19  37  37  37  37  19  19  37  37  37  19  37  37  37  19  37  19  37  37  37  37  37  37  37  37  37  37  37  37  37  37  19  37  37  37  37  37  37  37  37  37  37  37  19  37  37  19  37  37  37  37  37  37  37  37  37  19  19  37  37  37  37  37  37  37  37  37  19  37  37  37  37  37  37  37  37  37  37  37  37  37  37  37  37  37  37  37  37  19  37  37  37  37  37  37  37  37  37  37  19  37  37  37  19  37  37  37  37  37  37  37  19  37  37  37  37  37  37  37  37  37  37  37  37  37  37  37  37  19  19  37  37  37  37  37  37  37  37  37  19  37  37  19  37  37  37  37  19  37  37  19  37  37  37  37  37  37  37  37  37  37  37  37  37  37  37  37  37  37  37  37  37  37  37  37  37  37  37  37  37  19  37  37  37  37  37  37  37  37  37  37  37  37  37  37  37  19  19  37  37  37  37  37  37  37  37  19  37  37  37  37  37  37  37  37  37  37  37  37  37  37  37  37  37  37  37  37  37  19  37  37  37  37  37  37  37  37  37  37  37  37  37  37  37  37  37  37  37  37  37  37  37  37  37  37  37  37  37  37  37  37  37  37  37  19  37  37  37  37  37  37  37  19  37  37  37  37  19  37  37  37  19  37  37  37  19  37  37  37  37  37  37  37  37  37  37  19  37  37  37  37  37  37  37  37  37  37  37  37  37  37  37  37  37  37  37  37  37  37  37  37  37  37  37  37  37  37  37  37  37  37  37  37  37  37  19  37  19  19  37  37  19  37  37  37  37  37  19  19  19  37  37  37  37  37  37  37  37  37  37  37  37  37  37  37  37  37  37  37  37  37  37  37  37  37  37  37  37  37  37  37  37  37  37  37  37  37  19  37  37  37  37  37  37  19  37  37  37  19  37  19  37  37  37  37  37  37  37  37  37  37  37  37  37  37  37  37  37  37  37  37  37  37  37  37  37  37  37  37  19  37  37  37  37  19  37  37  37  37  37  37  37  37  37  37  19  37  37  37  37  19  37  37  37  37  37  19  37  37  37  37  37  37  37  37  37  19  37  37  37

  39  39  39  39  20  39  20  39  39  20  39  39  39  20  39  39  39  39  39  39  39  39  20  20  20  20  39  39  39  39  39  20  39  39  39  20  39  39  39  39  20  39  39  39  39  20  39  39  39  39  39  39  39  39  39  39  39  39  39  39  39  39  39  39  39  39  39  39  39  39  39  39  39  20  39  39  39  39  39  20  39  39  39  39  39  20  39  39  39  39  20  39  39  39  39  39  39  39  39  39  39  39  39  20  39  39  39  39  39  39  39  39  39  39  39  39  39  39  39  39  39  39  39  39  39  39  39  39  39  39  39  39  39  39  39  39  39  39  39  39  39  39  39  39  39  39  39  39  39  39  39  39  39  39  39  39  39  39  39  39  20  39  39  39  39  39  39  39  39  20  20  39  39  39  39  39  20  39  20  39  39  20  39  39  39  39  39  20  39  39  39  39  39  20  39  39  39  39  39  39  20  39  39  39  39  39  39  39  39  20  39  39  39  39  39  39  39  39  39  39  39  20  39  39  39  39  39  39  39  39  39  39  39  39  39  39  39  39  20  39  39  39  39  39  39  20  39  20  39  39  39  39  39  39  39  20  39  39  39  39  20  20  39  39  39  20  39  39  39  20  39  20  39  39  39  39  39  39  39  39  39  39  39  39  39  39  20  39  39  39  39  39  39  39  39  39  39  39  20  39  39  20  39  39  39  39  39  39  39  39  39  20  20  39  39  39  39  39  39  39  39  39  20  39  39  39  39  39  39  39  39  39  39  39  39  39  39  39  39  39  39  39  39  20  39  39  39  39  39  39  39  39  39  39  20  39  39  39  20  39  39  39  39  39  39  39  20  39  39  39  39  39  39  39  39  39  39  39  39  39  39  39  39  20  20  39  39  39  39  39  39  39  39  39  20  39  39  20  39  39  39  39  20  39  39  20  39  39  39  39  39  39  39  39  39  39  39  39  39  39  39  39  39  39  39  39  39  39  39  39  39  39  39  39  39  20  39  39  39  39  39  39  39  39  39  39  39  39  39  39  39  20  20  39  39  39  39  39  39  39  39  20  39  39  39  39  39  39  39  39  39  39  39  39  39  39  39  39  39  39  39  39  39  20  39  39  39  39  39  39  39  39  39  39  39  39  39  39  39  39  39  39  39  39  39  39  39  39  39  39  39  39  39  39  39  39  39  39  39  20  39  39  39  39  39  39  39  20  39  39  39  39  20  39  39  39  20  39  39  39  20  39  39  39  39  39  39  39  39  39  39  20  39  39  39  39  39  39  39  39  39  39  39  39  39  39  39  39  39  39  39  39  39  39  39  39  39  39  39  39  39  39  39  39  39  39  39  39  39  39  20  39  20  20  39  39  20  39  39  39  39  39  20  20  20  39  39  39  39  39  39  39  39  39  39  39  39  39  39  39  39  39  39  39  39  39  39  39  39  39  39  39  39  39  39  39  39  39  39  39  39  39  20  39  39  39  39  39  39  20  39  39  39  20  39  20  39  39  39  39  39  39  39  39  39  39  39  39  39  39  39  39  39  39  39  39  39  39  39  39  39  39  39  39  20  39  39  39  39  20  39  39  39  39  39  39  39  39  39  39  20  39  39  39  39  20  39  39  39  39  39  20  39  39  39  39  39  39  39  39  39  20  39  39  39

  40  40  40  40  20  40  20  40  40  20  40  40  40  20  40  40  40  40  40  40  40  40  20  20  20  20  40  40  40  40  40  20  40  40  40  20  40  40  40  40  20  40  40  40  40  20  40  40  40  40  40  40  40  40  40  40  40  40  40  40  40  40  40  40  40  40  40  40  40  40  40  40  40  20  40  40  40  40  40  20  40  40  40  40  40  20  40  40  40  40  20  40  40  40  40  40  40  40  40  40  40  40  40  20  40  40  40  40  40  40  40  40  40  40  40  40  40  40  40  40  40  40  40  40  40  40  40  40  40  40  40  40  40  40  40  40  40  40  40  40  40  40  40  40  40  40  40  40  40  40  40  40  40  40  40  40  40  40  40  40  20  40  40  40  40  40  40  40  40  20  20  40  40  40  40  40  20  40  20  40  40  20  40  40  40  40  40  20  40  40  40  40  40  20  40  40  40  40  40  40  20  40  40  40  40  40  40  40  40  20  40  40  40  40  40  40  40  40  40  40  40  20  40  40  40  40  40  40  40  40  40  40  40  40  40  40  40  40  20  40  40  40  40  40  40  20  40  20  40  40  40  40  40  40  40  20  40  40  40  40  20  20  40  40  40  20  40  40  40  20  40  20  40  40  40  40  40  40  40  40  40  40  40  40  40  40  20  40  40  40  40  40  40  40  40  40  40  40  20  40  40  20  40  40  40  40  40  40  40  40  40  20  20  40  40  40  40  40  40  40  40  40  20  40  40  40  40  40  40  40  40  40  40  40  40  40  40  40  40  40  40  40  40  20  40  40  40  40  40  40  40  40  40  40  20  40  40  40  20  40  40  40  40  40  40  40  20  40  40  40  40  40  40  40  40  40  40  40  40  40  40  40  40  20  20  40  40  40  40  40  40  40  40  40  20  40  40  20  40  40  40  40  20  40  40  20  40  40  40  40  40  40  40  40  40  40  40  40  40  40  40  40  40  40  40  40  40  40  40  40  40  40  40  40  40  20  40  40  40  40  40  40  40  40  40  40  40  40  40  40  40  20  20  40  40  40  40  40  40  40  40  20  40  40  40  40  40  40  40  40  40  40  40  40  40  40  40  40  40  40  40  40  40  20  40  40  40  40  40  40  40  40  40  40  40  40  40  40  40  40  40  40  40  40  40  40  40  40  40  40  40  40  40  40  40  40  40  40  40  20  40  40  40  40  40  40  40  20  40  40  40  40  20  40  40  40  20  40  40  40  20  40  40  40  40  40  40  40  40  40  40  20  40  40  40  40  40  40  40  40  40  40  40  40  40  40  40  40  40  40  40  40  40  40  40  40  40  40  40  40  40  40  40  40  40  40  40  40  40  40  20  40  20  20  40  40  20  40  40  40  40  40  20  20  20  40  40  40  40  40  40  40  40  40  40  40  40  40  40  40  40  40  40  40  40  40  40  40  40  40  40  40  40  40  40  40  40  40  40  40  40  40  20  40  40  40  40  40  40  20  40  40  40  20  40  20  40  40  40  40  40  40  40  40  40  40  40  40  40  40  40  40  40  40  40  40  40  40  40  40  40  40  40  40  20  40  40  40  40  20  40  40  40  40  40  40  40  40  40  40  20  40  40  40  40  20  40  40  40  40  40  20  40  40  40  40  40  40  40  40  40  20  40  40  40

  40  40  40  40  20  40  20  40  40  20  40  40  40  20  40  40  40  40  40  40  40  40  20  20  20  20  40  40  40  40  40  20  40  40  40  20  40  40  40  40  20  40  40  40  40  20  40  40  40  40  40  40  40  40  40  40  40  40  40  40  40  40  40  40  40  40  40  40  40  40  40  40  40  20  40  40  40  40  40  20  40  40  40  40  40  20  40  40  40  40  20  40  40  40  40  40  40  40  40  40  40  40  40  20  40  40  40  40  40  40  40  40  40  40  40  40  40  40  40  40  40  40  40  40  40  40  40  40  40  40  40  40  40  40  40  40  40  40  40  40  40  40  40  40  40  40  40  40  40  40  40  40  40  40  40  40  40  40  40  40  20  40  40  40  40  40  40  40  40  20  20  40  40  40  40  40  20  40  20  40  40  20  40  40  40  40  40  20  40  40  40  40  40  20  40  40  40  40  40  40  20  40  40  40  40  40  40  40  40  20  40  40  40  40  40  40  40  40  40  40  40  20  40  40  40  40  40  40  40  40  40  40  40  40  40  40  40  40  20  40  40  40  40  40  40  20  40  20  40  40  40  40  40  40  40  20  40  40  40  40  20  20  40  40  40  20  40  40  40  20  40  20  40  40  40  40  40  40  40  40  40  40  40  40  40  40  20  40  40  40  40  40  40  40  40  40  40  40  20  40  40  20  40  40  40  40  40  40  40  40  40  20  20  40  40  40  40  40  40  40  40  40  20  40  40  40  40  40  40  40  40  40  40  40  40  40  40  40  40  40  40  40  40  20  40  40  40  40  40  40  40  40  40  40  20  40  40  40  20  40  40  40  40  40  40  40  20  40  40  40  40  40  40  40  40  40  40  40  40  40  40  40  40  20  20  40  40  40  40  40  40  40  40  40  20  40  40  20  40  40  40  40  20  40  40  20  40  40  40  40  40  40  40  40  40  40  40  40  40  40  40  40  40  40  40  40  40  40  40  40  40  40  40  40  40  20  40  40  40  40  40  40  40  40  40  40  40  40  40  40  40  20  20  40  40  40  40  40  40  40  40  20  40  40  40  40  40  40  40  40  40  40  40  40  40  40  40  40  40  40  40  40  40  20  40  40  40  40  40  40  40  40  40  40  40  40  40  40  40  40  40  40  40  40  40  40  40  40  40  40  40  40  40  40  40  40  40  40  40  20  40  40  40  40  40  40  40  20  40  40  40  40  20  40  40  40  20  40  40  40  20  40  40  40  40  40  40  40  40  40  40  20  40  40  40  40  40  40  40  40  40  40  40  40  40  40  40  40  40  40  40  40  40  40  40  40  40  40  40  40  40  40  40  40  40  40  40  40  40  40  20  40  20  20  40  40  20  40  40  40  40  40  20  20  20  40  40  40  40  40  40  40  40  40  40  40  40  40  40  40  40  40  40  40  40  40  40  40  40  40  40  40  40  40  40  40  40  40  40  40  40  40  20  40  40  40  40  40  40  20  40  40  40  20  40  20  40  40  40  40  40  40  40  40  40  40  40  40  40  40  40  40  40  40  40  40  40  40  40  40  40  40  40  40  20  40  40  40  40  20  40  40  40  40  40  40  40  40  40  40  20  40  40  40  40  20  40  40  40  40  40  20  40  40  40  40  40  40  40  40  40  20  40  40  40

************************************************************************
